c nIsolatedPIs 28
c maxPI 4
p cnf 9 16
c gate 5 -2 4 0
-2 -5 0
4 -5 0
2 -4 5 0
c gate 6 2 -4 0
2 -6 0
-4 -6 0
-2 4 6 0
c gate 7 -5 -6 0
-5 -7 0
-6 -7 0
5 6 7 0
c gate 8 1 3 0
1 -8 0
3 -8 0
-1 -3 8 0
c gate 9 -7 8 0
-7 -9 0
8 -9 0
7 -8 9 0
c PO
9 0
